20 24 25 27 29 30 28 26 23 22 21 
43 42 44 46 45 48 51 50 52 49 47 
32 33 34 36 39 38 37 35 31 
75 1 2 4 3 5 
41 40 68 66 69 
13 15 12 14 16 19 18 17 
67 65 62 74 63 
81 78 76 71 70 73 77 79 80 72 61 64 
98 96 95 94 92 93 97 100 99 
55 54 53 56 58 60 59 57 
10 8 11 9 6 7 
90 87 86 83 82 84 85 88 89 91 
